191 157 138 158 123 189
119 172 168 173 146 252
183 152 193 142 236 136
198 172 138 127 207 137
102 114 182 127 213 240
169 165 190 152 152 222
188 135 173 192 238 206
138 131 181 213 231 260
155 118 145 191 143 183
131 190 156 131 218 223
105 141 206 214 177 217
192 192 122 212 197 184
182 104 147 218 160 198
143 121 134 200 151 152
168 119 132 214 232 252
156 119 118 131 196 131
135 202 194 187 154 183
188 169 145 116 172 141
123 132 177 158 149 153
122 139 140 136 178 152
